c 
c G(n,p) graph
c graph gen seed     : 51113
c number of vertices : 50
c max number of edges: 1225
c edge probability   : 0.200000
c data structure     : sparse
c
c           Graph Stats
c number of vertices  : 50
c nonisolated vertices: 50
c number of edges     : 228
c edge density        : 0.186122
c max degree          : 15
c avg degree          : 9.12
c min degree          : 4
p col 50 228
e 1 43
e 1 41
e 1 39
e 1 38
e 1 32
e 1 5
e 1 3
e 2 49
e 2 43
e 2 40
e 2 32
e 2 31
e 2 29
e 2 28
e 2 23
e 2 19
e 2 13
e 2 12
e 2 4
e 2 3
e 3 50
e 3 46
e 3 41
e 3 36
e 3 35
e 3 32
e 3 27
e 3 15
e 3 14
e 3 6
e 3 5
e 4 47
e 4 33
e 4 26
e 4 23
e 4 12
e 4 6
e 5 50
e 5 45
e 5 27
e 5 22
e 5 16
e 5 14
e 5 7
e 6 47
e 6 42
e 6 39
e 6 37
e 6 34
e 6 32
e 6 29
e 6 28
e 6 21
e 6 15
e 7 47
e 7 40
e 7 39
e 7 28
e 7 20
e 7 15
e 7 12
e 7 11
e 8 41
e 8 35
e 8 34
e 8 25
e 8 18
e 8 17
e 8 16
e 8 12
e 8 10
e 9 43
e 9 39
e 9 35
e 9 27
e 9 22
e 9 12
e 10 48
e 10 43
e 10 42
e 10 38
e 10 32
e 10 29
e 10 26
e 10 23
e 10 19
e 10 18
e 10 13
e 11 47
e 11 46
e 11 44
e 11 43
e 11 42
e 11 35
e 11 33
e 11 23
e 11 14
e 12 41
e 12 35
e 12 18
e 13 50
e 13 49
e 13 46
e 13 44
e 13 18
e 14 49
e 14 47
e 14 35
e 14 30
e 14 22
e 14 18
e 15 50
e 15 44
e 15 43
e 15 33
e 15 20
e 15 18
e 16 38
e 16 33
e 16 30
e 16 18
e 17 33
e 17 30
e 17 21
e 18 47
e 18 42
e 18 41
e 18 34
e 18 33
e 18 29
e 18 26
e 18 19
e 19 49
e 19 47
e 19 38
e 19 37
e 19 36
e 19 35
e 19 30
e 20 50
e 20 48
e 20 46
e 20 45
e 20 42
e 20 39
e 20 34
e 20 25
e 20 23
e 21 43
e 21 36
e 22 33
e 22 29
e 22 28
e 22 24
e 23 45
e 23 43
e 23 41
e 23 39
e 23 32
e 23 29
e 23 27
e 24 49
e 24 48
e 24 43
e 24 33
e 24 25
e 25 42
e 25 40
e 25 35
e 25 29
e 25 27
e 26 50
e 26 44
e 26 39
e 26 34
e 26 27
e 27 49
e 27 44
e 27 29
e 28 41
e 28 38
e 28 30
e 29 46
e 29 43
e 29 42
e 29 40
e 29 35
e 29 33
e 30 49
e 30 38
e 30 32
e 31 49
e 31 35
e 31 34
e 32 46
e 33 50
e 33 46
e 33 45
e 33 40
e 33 37
e 34 42
e 34 39
e 34 37
e 34 35
e 35 49
e 35 45
e 35 41
e 36 40
e 37 48
e 37 43
e 38 49
e 38 44
e 38 41
e 38 39
e 39 50
e 39 48
e 39 47
e 39 43
e 40 46
e 40 45
e 40 41
e 41 44
e 41 43
e 42 49
e 42 47
e 43 44
e 47 50
e 47 48
